COMUNI = {
	bastia_umbra,
	corciano,
	orvieto,
};

NUMERO_COMUNI = 3;

ABITANTI_PER_COMUNE = [21, 21, 19];

STRADE_TRA_COMUNI = [|
	false, false, false |
	false, false, false |
	false, false, false |
|];

RICHIESTE = [|
	147, 45, 34, 0, 44 |
	1, 88, 36, 115, 35 |
	12, 92, 101, 82, 160 |
|];
